p edge 1000 2597
e 1 2 1
e 1 1000 1
e 1 3 1
e 1 999 1
e 1 769 1
e 1 762 1
e 1 765 1
e 2 3 1
e 2 4 1
e 2 1000 1
e 3 4 1
e 3 5 1
e 3 159 1
e 4 5 1
e 4 6 1
e 5 6 1
e 5 7 1
e 5 261 1
e 6 7 1
e 6 8 1
e 6 62 1
e 7 8 1
e 7 9 1
e 7 180 1
e 7 375 1
e 8 9 1
e 8 10 1
e 8 745 1
e 9 10 1
e 9 11 1
e 9 955 1
e 9 828 1
e 10 11 1
e 10 12 1
e 10 322 1
e 11 12 1
e 11 13 1
e 11 476 1
e 11 234 1
e 12 13 1
e 12 14 1
e 13 14 1
e 13 15 1
e 13 246 1
e 14 15 1
e 14 16 1
e 14 797 1
e 15 16 1
e 15 17 1
e 16 17 1
e 16 18 1
e 16 450 1
e 16 515 1
e 16 555 1
e 17 18 1
e 17 19 1
e 17 541 1
e 18 19 1
e 18 20 1
e 18 462 1
e 19 20 1
e 19 21 1
e 19 802 1
e 20 21 1
e 20 22 1
e 20 859 1
e 21 22 1
e 21 23 1
e 21 272 1
e 21 738 1
e 22 23 1
e 22 24 1
e 23 24 1
e 23 25 1
e 23 582 1
e 24 25 1
e 24 26 1
e 24 885 1
e 25 26 1
e 25 27 1
e 25 61 1
e 25 862 1
e 25 70 1
e 25 835 1
e 26 27 1
e 26 28 1
e 26 573 1
e 27 28 1
e 27 29 1
e 27 639 1
e 28 29 1
e 28 30 1
e 28 404 1
e 29 30 1
e 29 31 1
e 29 645 1
e 30 31 1
e 30 32 1
e 30 818 1
e 30 61 1
e 31 32 1
e 31 33 1
e 32 33 1
e 32 34 1
e 32 512 1
e 33 34 1
e 33 35 1
e 33 58 1
e 34 35 1
e 34 36 1
e 34 48 1
e 34 887 1
e 35 36 1
e 35 37 1
e 35 625 1
e 35 427 1
e 36 37 1
e 36 38 1
e 36 600 1
e 37 38 1
e 37 39 1
e 38 39 1
e 38 40 1
e 38 684 1
e 38 86 1
e 38 491 1
e 39 40 1
e 39 41 1
e 39 764 1
e 40 41 1
e 40 42 1
e 40 177 1
e 40 256 1
e 41 42 1
e 41 43 1
e 41 301 1
e 41 350 1
e 42 43 1
e 42 44 1
e 43 44 1
e 43 45 1
e 43 588 1
e 43 286 1
e 43 752 1
e 44 45 1
e 44 46 1
e 44 342 1
e 45 46 1
e 45 47 1
e 45 61 1
e 45 514 1
e 46 47 1
e 46 48 1
e 46 614 1
e 47 48 1
e 47 49 1
e 47 781 1
e 48 49 1
e 48 50 1
e 48 126 1
e 48 845 1
e 49 50 1
e 49 51 1
e 49 492 1
e 49 641 1
e 50 51 1
e 50 52 1
e 50 1000 1
e 50 949 1
e 51 52 1
e 51 53 1
e 51 264 1
e 52 53 1
e 52 54 1
e 52 819 1
e 53 54 1
e 53 55 1
e 53 602 1
e 54 55 1
e 54 56 1
e 54 745 1
e 54 895 1
e 55 56 1
e 55 57 1
e 56 57 1
e 56 58 1
e 56 808 1
e 56 935 1
e 57 58 1
e 57 59 1
e 57 278 1
e 58 59 1
e 58 60 1
e 59 60 1
e 59 61 1
e 59 625 1
e 60 61 1
e 60 62 1
e 60 357 1
e 61 62 1
e 61 63 1
e 62 63 1
e 62 64 1
e 62 631 1
e 62 319 1
e 63 64 1
e 63 65 1
e 63 720 1
e 64 65 1
e 64 66 1
e 64 754 1
e 65 66 1
e 65 67 1
e 65 226 1
e 65 822 1
e 66 67 1
e 66 68 1
e 66 692 1
e 66 639 1
e 67 68 1
e 67 69 1
e 67 145 1
e 68 69 1
e 68 70 1
e 69 70 1
e 69 71 1
e 70 71 1
e 70 72 1
e 71 72 1
e 71 73 1
e 71 689 1
e 71 198 1
e 71 562 1
e 72 73 1
e 72 74 1
e 72 213 1
e 73 74 1
e 73 75 1
e 74 75 1
e 74 76 1
e 74 806 1
e 74 662 1
e 75 76 1
e 75 77 1
e 75 262 1
e 76 77 1
e 76 78 1
e 76 644 1
e 77 78 1
e 77 79 1
e 78 79 1
e 78 80 1
e 79 80 1
e 79 81 1
e 80 81 1
e 80 82 1
e 80 377 1
e 81 82 1
e 81 83 1
e 81 428 1
e 82 83 1
e 82 84 1
e 82 132 1
e 83 84 1
e 83 85 1
e 83 604 1
e 83 690 1
e 83 646 1
e 84 85 1
e 84 86 1
e 84 134 1
e 85 86 1
e 85 87 1
e 85 779 1
e 85 397 1
e 86 87 1
e 86 88 1
e 87 88 1
e 87 89 1
e 87 547 1
e 88 89 1
e 88 90 1
e 89 90 1
e 89 91 1
e 90 91 1
e 90 92 1
e 90 678 1
e 91 92 1
e 91 93 1
e 91 910 1
e 92 93 1
e 92 94 1
e 92 380 1
e 92 927 1
e 93 94 1
e 93 95 1
e 93 310 1
e 94 95 1
e 94 96 1
e 95 96 1
e 95 97 1
e 95 989 1
e 95 324 1
e 96 97 1
e 96 98 1
e 96 400 1
e 97 98 1
e 97 99 1
e 98 99 1
e 98 100 1
e 98 341 1
e 98 162 1
e 98 255 1
e 99 100 1
e 99 101 1
e 99 146 1
e 100 101 1
e 100 102 1
e 100 624 1
e 101 102 1
e 101 103 1
e 101 877 1
e 102 103 1
e 102 104 1
e 103 104 1
e 103 105 1
e 103 581 1
e 104 105 1
e 104 106 1
e 104 390 1
e 104 900 1
e 105 106 1
e 105 107 1
e 105 441 1
e 106 107 1
e 106 108 1
e 106 600 1
e 106 271 1
e 106 298 1
e 107 108 1
e 107 109 1
e 107 657 1
e 107 288 1
e 108 109 1
e 108 110 1
e 109 110 1
e 109 111 1
e 109 274 1
e 110 111 1
e 110 112 1
e 110 461 1
e 110 421 1
e 111 112 1
e 111 113 1
e 112 113 1
e 112 114 1
e 113 114 1
e 113 115 1
e 114 115 1
e 114 116 1
e 114 670 1
e 115 116 1
e 115 117 1
e 116 117 1
e 116 118 1
e 116 629 1
e 117 118 1
e 117 119 1
e 117 431 1
e 117 310 1
e 118 119 1
e 118 120 1
e 118 907 1
e 119 120 1
e 119 121 1
e 119 387 1
e 119 280 1
e 120 121 1
e 120 122 1
e 120 886 1
e 120 532 1
e 121 122 1
e 121 123 1
e 121 510 1
e 122 123 1
e 122 124 1
e 123 124 1
e 123 125 1
e 123 959 1
e 124 125 1
e 124 126 1
e 124 599 1
e 125 126 1
e 125 127 1
e 125 667 1
e 126 127 1
e 126 128 1
e 127 128 1
e 127 129 1
e 127 171 1
e 128 129 1
e 128 130 1
e 128 185 1
e 128 241 1
e 128 625 1
e 129 130 1
e 129 131 1
e 129 849 1
e 130 131 1
e 130 132 1
e 130 869 1
e 130 825 1
e 131 132 1
e 131 133 1
e 131 531 1
e 132 133 1
e 132 134 1
e 132 345 1
e 133 134 1
e 133 135 1
e 133 685 1
e 134 135 1
e 134 136 1
e 135 136 1
e 135 137 1
e 135 903 1
e 136 137 1
e 136 138 1
e 136 161 1
e 137 138 1
e 137 139 1
e 138 139 1
e 138 140 1
e 138 881 1
e 138 735 1
e 139 140 1
e 139 141 1
e 140 141 1
e 140 142 1
e 141 142 1
e 141 143 1
e 141 601 1
e 142 143 1
e 142 144 1
e 142 487 1
e 143 144 1
e 143 145 1
e 143 569 1
e 143 933 1
e 144 145 1
e 144 146 1
e 144 650 1
e 145 146 1
e 145 147 1
e 145 407 1
e 145 416 1
e 146 147 1
e 146 148 1
e 147 148 1
e 147 149 1
e 147 357 1
e 148 149 1
e 148 150 1
e 149 150 1
e 149 151 1
e 149 461 1
e 150 151 1
e 150 152 1
e 150 720 1
e 151 152 1
e 151 153 1
e 151 807 1
e 152 153 1
e 152 154 1
e 152 523 1
e 152 455 1
e 153 154 1
e 153 155 1
e 153 803 1
e 154 155 1
e 154 156 1
e 154 615 1
e 155 156 1
e 155 157 1
e 155 928 1
e 155 489 1
e 156 157 1
e 156 158 1
e 156 814 1
e 157 158 1
e 157 159 1
e 157 231 1
e 158 159 1
e 158 160 1
e 159 160 1
e 159 161 1
e 159 438 1
e 160 161 1
e 160 162 1
e 160 410 1
e 161 162 1
e 161 163 1
e 161 313 1
e 162 163 1
e 162 164 1
e 163 164 1
e 163 165 1
e 163 422 1
e 164 165 1
e 164 166 1
e 164 257 1
e 164 817 1
e 165 166 1
e 165 167 1
e 166 167 1
e 166 168 1
e 166 583 1
e 167 168 1
e 167 169 1
e 168 169 1
e 168 170 1
e 168 494 1
e 168 660 1
e 169 170 1
e 169 171 1
e 169 444 1
e 170 171 1
e 170 172 1
e 170 237 1
e 171 172 1
e 171 173 1
e 171 711 1
e 172 173 1
e 172 174 1
e 172 928 1
e 172 911 1
e 172 903 1
e 173 174 1
e 173 175 1
e 173 263 1
e 173 914 1
e 174 175 1
e 174 176 1
e 174 636 1
e 175 176 1
e 175 177 1
e 175 285 1
e 176 177 1
e 176 178 1
e 177 178 1
e 177 179 1
e 178 179 1
e 178 180 1
e 178 684 1
e 179 180 1
e 179 181 1
e 180 181 1
e 180 182 1
e 181 182 1
e 181 183 1
e 181 960 1
e 182 183 1
e 182 184 1
e 182 645 1
e 182 632 1
e 183 184 1
e 183 185 1
e 183 516 1
e 184 185 1
e 184 186 1
e 185 186 1
e 185 187 1
e 185 684 1
e 185 815 1
e 186 187 1
e 186 188 1
e 186 816 1
e 187 188 1
e 187 189 1
e 188 189 1
e 188 190 1
e 188 879 1
e 189 190 1
e 189 191 1
e 189 357 1
e 190 191 1
e 190 192 1
e 190 381 1
e 191 192 1
e 191 193 1
e 191 805 1
e 192 193 1
e 192 194 1
e 192 478 1
e 192 774 1
e 193 194 1
e 193 195 1
e 194 195 1
e 194 196 1
e 194 920 1
e 195 196 1
e 195 197 1
e 195 366 1
e 195 546 1
e 196 197 1
e 196 198 1
e 196 716 1
e 196 818 1
e 197 198 1
e 197 199 1
e 197 355 1
e 198 199 1
e 198 200 1
e 198 706 1
e 199 200 1
e 199 201 1
e 199 369 1
e 200 201 1
e 200 202 1
e 200 365 1
e 201 202 1
e 201 203 1
e 202 203 1
e 202 204 1
e 202 785 1
e 202 806 1
e 202 276 1
e 203 204 1
e 203 205 1
e 204 205 1
e 204 206 1
e 204 794 1
e 205 206 1
e 205 207 1
e 205 806 1
e 205 798 1
e 206 207 1
e 206 208 1
e 207 208 1
e 207 209 1
e 207 356 1
e 208 209 1
e 208 210 1
e 208 557 1
e 209 210 1
e 209 211 1
e 210 211 1
e 210 212 1
e 211 212 1
e 211 213 1
e 211 865 1
e 212 213 1
e 212 214 1
e 213 214 1
e 213 215 1
e 213 268 1
e 213 771 1
e 214 215 1
e 214 216 1
e 214 340 1
e 215 216 1
e 215 217 1
e 216 217 1
e 216 218 1
e 216 698 1
e 216 732 1
e 216 834 1
e 216 894 1
e 217 218 1
e 217 219 1
e 217 662 1
e 218 219 1
e 218 220 1
e 218 288 1
e 219 220 1
e 219 221 1
e 219 865 1
e 220 221 1
e 220 222 1
e 220 224 1
e 221 222 1
e 221 223 1
e 221 503 1
e 222 223 1
e 222 224 1
e 222 395 1
e 223 224 1
e 223 225 1
e 223 354 1
e 224 225 1
e 224 226 1
e 225 226 1
e 225 227 1
e 225 654 1
e 225 673 1
e 225 493 1
e 225 630 1
e 226 227 1
e 226 228 1
e 227 228 1
e 227 229 1
e 228 229 1
e 228 230 1
e 228 839 1
e 228 426 1
e 228 617 1
e 229 230 1
e 229 231 1
e 229 926 1
e 229 598 1
e 230 231 1
e 230 232 1
e 231 232 1
e 231 233 1
e 232 233 1
e 232 234 1
e 233 234 1
e 233 235 1
e 233 503 1
e 234 235 1
e 234 236 1
e 235 236 1
e 235 237 1
e 235 409 1
e 236 237 1
e 236 238 1
e 236 712 1
e 236 879 1
e 237 238 1
e 237 239 1
e 237 631 1
e 237 957 1
e 238 239 1
e 238 240 1
e 238 771 1
e 239 240 1
e 239 241 1
e 239 382 1
e 240 241 1
e 240 242 1
e 240 356 1
e 240 683 1
e 240 762 1
e 241 242 1
e 241 243 1
e 241 436 1
e 241 250 1
e 242 243 1
e 242 244 1
e 242 349 1
e 243 244 1
e 243 245 1
e 243 548 1
e 244 245 1
e 244 246 1
e 244 608 1
e 245 246 1
e 245 247 1
e 246 247 1
e 246 248 1
e 246 870 1
e 246 535 1
e 247 248 1
e 247 249 1
e 247 981 1
e 248 249 1
e 248 250 1
e 249 250 1
e 249 251 1
e 250 251 1
e 250 252 1
e 250 517 1
e 250 817 1
e 251 252 1
e 251 253 1
e 251 500 1
e 251 268 1
e 252 253 1
e 252 254 1
e 252 985 1
e 253 254 1
e 253 255 1
e 253 927 1
e 254 255 1
e 254 256 1
e 254 611 1
e 255 256 1
e 255 257 1
e 255 280 1
e 256 257 1
e 256 258 1
e 257 258 1
e 257 259 1
e 258 259 1
e 258 260 1
e 258 444 1
e 259 260 1
e 259 261 1
e 259 948 1
e 260 261 1
e 260 262 1
e 260 873 1
e 261 262 1
e 261 263 1
e 262 263 1
e 262 264 1
e 263 264 1
e 263 265 1
e 264 265 1
e 264 266 1
e 265 266 1
e 265 267 1
e 266 267 1
e 266 268 1
e 267 268 1
e 267 269 1
e 268 269 1
e 268 270 1
e 268 328 1
e 269 270 1
e 269 271 1
e 270 271 1
e 270 272 1
e 270 680 1
e 271 272 1
e 271 273 1
e 272 273 1
e 272 274 1
e 272 664 1
e 272 376 1
e 273 274 1
e 273 275 1
e 274 275 1
e 274 276 1
e 275 276 1
e 275 277 1
e 275 526 1
e 275 278 1
e 276 277 1
e 276 278 1
e 276 790 1
e 277 278 1
e 277 279 1
e 278 279 1
e 278 280 1
e 279 280 1
e 279 281 1
e 280 281 1
e 280 282 1
e 281 282 1
e 281 283 1
e 281 416 1
e 281 386 1
e 282 283 1
e 282 284 1
e 283 284 1
e 283 285 1
e 283 729 1
e 283 968 1
e 284 285 1
e 284 286 1
e 285 286 1
e 285 287 1
e 286 287 1
e 286 288 1
e 286 510 1
e 287 288 1
e 287 289 1
e 288 289 1
e 288 290 1
e 289 290 1
e 289 291 1
e 289 672 1
e 290 291 1
e 290 292 1
e 290 787 1
e 291 292 1
e 291 293 1
e 291 441 1
e 291 514 1
e 291 964 1
e 292 293 1
e 292 294 1
e 292 857 1
e 292 371 1
e 293 294 1
e 293 295 1
e 293 844 1
e 293 789 1
e 294 295 1
e 294 296 1
e 294 341 1
e 294 940 1
e 295 296 1
e 295 297 1
e 295 774 1
e 296 297 1
e 296 298 1
e 297 298 1
e 297 299 1
e 298 299 1
e 298 300 1
e 298 967 1
e 299 300 1
e 299 301 1
e 299 830 1
e 300 301 1
e 300 302 1
e 301 302 1
e 301 303 1
e 301 319 1
e 302 303 1
e 302 304 1
e 303 304 1
e 303 305 1
e 304 305 1
e 304 306 1
e 304 708 1
e 304 772 1
e 305 306 1
e 305 307 1
e 305 576 1
e 306 307 1
e 306 308 1
e 307 308 1
e 307 309 1
e 307 618 1
e 308 309 1
e 308 310 1
e 308 475 1
e 309 310 1
e 309 311 1
e 310 311 1
e 310 312 1
e 311 312 1
e 311 313 1
e 311 549 1
e 311 704 1
e 312 313 1
e 312 314 1
e 312 994 1
e 312 584 1
e 313 314 1
e 313 315 1
e 314 315 1
e 314 316 1
e 315 316 1
e 315 317 1
e 316 317 1
e 316 318 1
e 317 318 1
e 317 319 1
e 317 339 1
e 318 319 1
e 318 320 1
e 319 320 1
e 319 321 1
e 320 321 1
e 320 322 1
e 321 322 1
e 321 323 1
e 321 919 1
e 322 323 1
e 322 324 1
e 322 450 1
e 323 324 1
e 323 325 1
e 324 325 1
e 324 326 1
e 324 873 1
e 325 326 1
e 325 327 1
e 325 746 1
e 326 327 1
e 326 328 1
e 326 672 1
e 327 328 1
e 327 329 1
e 328 329 1
e 328 330 1
e 329 330 1
e 329 331 1
e 329 494 1
e 329 335 1
e 329 525 1
e 330 331 1
e 330 332 1
e 330 908 1
e 331 332 1
e 331 333 1
e 331 698 1
e 332 333 1
e 332 334 1
e 332 759 1
e 332 783 1
e 332 568 1
e 332 689 1
e 333 334 1
e 333 335 1
e 333 574 1
e 334 335 1
e 334 336 1
e 334 492 1
e 335 336 1
e 335 337 1
e 335 805 1
e 336 337 1
e 336 338 1
e 336 373 1
e 336 789 1
e 337 338 1
e 337 339 1
e 337 638 1
e 337 405 1
e 338 339 1
e 338 340 1
e 338 441 1
e 339 340 1
e 339 341 1
e 339 360 1
e 340 341 1
e 340 342 1
e 341 342 1
e 341 343 1
e 342 343 1
e 342 344 1
e 343 344 1
e 343 345 1
e 344 345 1
e 344 346 1
e 344 647 1
e 345 346 1
e 345 347 1
e 346 347 1
e 346 348 1
e 347 348 1
e 347 349 1
e 347 754 1
e 347 656 1
e 348 349 1
e 348 350 1
e 348 361 1
e 349 350 1
e 349 351 1
e 350 351 1
e 350 352 1
e 351 352 1
e 351 353 1
e 351 589 1
e 352 353 1
e 352 354 1
e 352 908 1
e 352 638 1
e 352 987 1
e 353 354 1
e 353 355 1
e 354 355 1
e 354 356 1
e 354 767 1
e 355 356 1
e 355 357 1
e 355 554 1
e 356 357 1
e 356 358 1
e 357 358 1
e 357 359 1
e 357 716 1
e 357 922 1
e 358 359 1
e 358 360 1
e 358 568 1
e 358 920 1
e 359 360 1
e 359 361 1
e 359 574 1
e 359 518 1
e 360 361 1
e 360 362 1
e 361 362 1
e 361 363 1
e 361 639 1
e 362 363 1
e 362 364 1
e 362 681 1
e 363 364 1
e 363 365 1
e 363 722 1
e 363 570 1
e 363 657 1
e 364 365 1
e 364 366 1
e 365 366 1
e 365 367 1
e 366 367 1
e 366 368 1
e 367 368 1
e 367 369 1
e 368 369 1
e 368 370 1
e 369 370 1
e 369 371 1
e 370 371 1
e 370 372 1
e 370 779 1
e 371 372 1
e 371 373 1
e 372 373 1
e 372 374 1
e 372 524 1
e 373 374 1
e 373 375 1
e 374 375 1
e 374 376 1
e 375 376 1
e 375 377 1
e 376 377 1
e 376 378 1
e 377 378 1
e 377 379 1
e 377 736 1
e 378 379 1
e 378 380 1
e 378 573 1
e 378 593 1
e 379 380 1
e 379 381 1
e 380 381 1
e 380 382 1
e 381 382 1
e 381 383 1
e 381 476 1
e 382 383 1
e 382 384 1
e 382 881 1
e 383 384 1
e 383 385 1
e 384 385 1
e 384 386 1
e 384 394 1
e 384 584 1
e 384 951 1
e 385 386 1
e 385 387 1
e 385 982 1
e 385 593 1
e 386 387 1
e 386 388 1
e 387 388 1
e 387 389 1
e 388 389 1
e 388 390 1
e 389 390 1
e 389 391 1
e 389 985 1
e 390 391 1
e 390 392 1
e 390 625 1
e 390 878 1
e 391 392 1
e 391 393 1
e 391 506 1
e 391 986 1
e 392 393 1
e 392 394 1
e 392 766 1
e 393 394 1
e 393 395 1
e 394 395 1
e 394 396 1
e 395 396 1
e 395 397 1
e 395 536 1
e 396 397 1
e 396 398 1
e 397 398 1
e 397 399 1
e 397 695 1
e 398 399 1
e 398 400 1
e 398 803 1
e 399 400 1
e 399 401 1
e 400 401 1
e 400 402 1
e 401 402 1
e 401 403 1
e 402 403 1
e 402 404 1
e 402 678 1
e 402 623 1
e 402 860 1
e 403 404 1
e 403 405 1
e 403 666 1
e 403 428 1
e 404 405 1
e 404 406 1
e 405 406 1
e 405 407 1
e 406 407 1
e 406 408 1
e 407 408 1
e 407 409 1
e 407 843 1
e 408 409 1
e 408 410 1
e 408 672 1
e 409 410 1
e 409 411 1
e 409 656 1
e 409 735 1
e 410 411 1
e 410 412 1
e 410 626 1
e 410 950 1
e 411 412 1
e 411 413 1
e 411 917 1
e 412 413 1
e 412 414 1
e 412 428 1
e 412 659 1
e 412 519 1
e 413 414 1
e 413 415 1
e 413 533 1
e 413 608 1
e 414 415 1
e 414 416 1
e 415 416 1
e 415 417 1
e 415 565 1
e 416 417 1
e 416 418 1
e 416 481 1
e 417 418 1
e 417 419 1
e 417 468 1
e 417 601 1
e 418 419 1
e 418 420 1
e 419 420 1
e 419 421 1
e 419 878 1
e 419 801 1
e 420 421 1
e 420 422 1
e 420 514 1
e 421 422 1
e 421 423 1
e 421 576 1
e 422 423 1
e 422 424 1
e 422 706 1
e 423 424 1
e 423 425 1
e 424 425 1
e 424 426 1
e 424 584 1
e 425 426 1
e 425 427 1
e 425 811 1
e 426 427 1
e 426 428 1
e 427 428 1
e 427 429 1
e 427 759 1
e 428 429 1
e 428 430 1
e 429 430 1
e 429 431 1
e 430 431 1
e 430 432 1
e 430 691 1
e 430 616 1
e 430 727 1
e 430 938 1
e 431 432 1
e 431 433 1
e 432 433 1
e 432 434 1
e 432 802 1
e 432 813 1
e 433 434 1
e 433 435 1
e 434 435 1
e 434 436 1
e 434 722 1
e 434 626 1
e 434 909 1
e 435 436 1
e 435 437 1
e 435 854 1
e 436 437 1
e 436 438 1
e 437 438 1
e 437 439 1
e 437 797 1
e 437 832 1
e 438 439 1
e 438 440 1
e 438 632 1
e 439 440 1
e 439 441 1
e 439 605 1
e 440 441 1
e 440 442 1
e 440 951 1
e 441 442 1
e 441 443 1
e 441 752 1
e 441 994 1
e 442 443 1
e 442 444 1
e 443 444 1
e 443 445 1
e 444 445 1
e 444 446 1
e 445 446 1
e 445 447 1
e 446 447 1
e 446 448 1
e 447 448 1
e 447 449 1
e 448 449 1
e 448 450 1
e 449 450 1
e 449 451 1
e 449 668 1
e 450 451 1
e 450 452 1
e 450 825 1
e 451 452 1
e 451 453 1
e 452 453 1
e 452 454 1
e 452 765 1
e 453 454 1
e 453 455 1
e 454 455 1
e 454 456 1
e 454 945 1
e 454 482 1
e 455 456 1
e 455 457 1
e 456 457 1
e 456 458 1
e 456 599 1
e 456 940 1
e 457 458 1
e 457 459 1
e 457 644 1
e 457 965 1
e 458 459 1
e 458 460 1
e 458 790 1
e 459 460 1
e 459 461 1
e 459 658 1
e 459 534 1
e 460 461 1
e 460 462 1
e 461 462 1
e 461 463 1
e 462 463 1
e 462 464 1
e 463 464 1
e 463 465 1
e 464 465 1
e 464 466 1
e 464 670 1
e 465 466 1
e 465 467 1
e 465 962 1
e 466 467 1
e 466 468 1
e 466 832 1
e 466 503 1
e 466 836 1
e 467 468 1
e 467 469 1
e 467 901 1
e 468 469 1
e 468 470 1
e 469 470 1
e 469 471 1
e 470 471 1
e 470 472 1
e 470 696 1
e 471 472 1
e 471 473 1
e 471 985 1
e 472 473 1
e 472 474 1
e 473 474 1
e 473 475 1
e 473 588 1
e 473 989 1
e 473 541 1
e 473 759 1
e 474 475 1
e 474 476 1
e 474 496 1
e 475 476 1
e 475 477 1
e 476 477 1
e 476 478 1
e 476 603 1
e 477 478 1
e 477 479 1
e 477 895 1
e 478 479 1
e 478 480 1
e 479 480 1
e 479 481 1
e 479 798 1
e 480 481 1
e 480 482 1
e 480 608 1
e 480 579 1
e 481 482 1
e 481 483 1
e 482 483 1
e 482 484 1
e 483 484 1
e 483 485 1
e 484 485 1
e 484 486 1
e 485 486 1
e 485 487 1
e 485 970 1
e 485 689 1
e 485 816 1
e 486 487 1
e 486 488 1
e 486 614 1
e 487 488 1
e 487 489 1
e 488 489 1
e 488 490 1
e 488 624 1
e 489 490 1
e 489 491 1
e 489 647 1
e 490 491 1
e 490 492 1
e 491 492 1
e 491 493 1
e 492 493 1
e 492 494 1
e 492 712 1
e 493 494 1
e 493 495 1
e 494 495 1
e 494 496 1
e 495 496 1
e 495 497 1
e 495 943 1
e 495 635 1
e 496 497 1
e 496 498 1
e 496 751 1
e 497 498 1
e 497 499 1
e 497 545 1
e 498 499 1
e 498 500 1
e 499 500 1
e 499 501 1
e 499 881 1
e 500 501 1
e 500 502 1
e 501 502 1
e 501 503 1
e 501 778 1
e 502 503 1
e 502 504 1
e 503 504 1
e 503 505 1
e 504 505 1
e 504 506 1
e 504 732 1
e 505 506 1
e 505 507 1
e 506 507 1
e 506 508 1
e 506 591 1
e 507 508 1
e 507 509 1
e 508 509 1
e 508 510 1
e 509 510 1
e 509 511 1
e 510 511 1
e 510 512 1
e 510 786 1
e 511 512 1
e 511 513 1
e 512 513 1
e 512 514 1
e 513 514 1
e 513 515 1
e 513 863 1
e 514 515 1
e 514 516 1
e 515 516 1
e 515 517 1
e 516 517 1
e 516 518 1
e 517 518 1
e 517 519 1
e 518 519 1
e 518 520 1
e 518 782 1
e 519 520 1
e 519 521 1
e 520 521 1
e 520 522 1
e 521 522 1
e 521 523 1
e 521 643 1
e 522 523 1
e 522 524 1
e 522 825 1
e 523 524 1
e 523 525 1
e 524 525 1
e 524 526 1
e 525 526 1
e 525 527 1
e 526 527 1
e 526 528 1
e 527 528 1
e 527 529 1
e 528 529 1
e 528 530 1
e 528 708 1
e 529 530 1
e 529 531 1
e 530 531 1
e 530 532 1
e 531 532 1
e 531 533 1
e 532 533 1
e 532 534 1
e 533 534 1
e 533 535 1
e 534 535 1
e 534 536 1
e 535 536 1
e 535 537 1
e 536 537 1
e 536 538 1
e 536 983 1
e 537 538 1
e 537 539 1
e 537 752 1
e 538 539 1
e 538 540 1
e 538 708 1
e 539 540 1
e 539 541 1
e 539 750 1
e 539 961 1
e 540 541 1
e 540 542 1
e 540 981 1
e 541 542 1
e 541 543 1
e 542 543 1
e 542 544 1
e 542 970 1
e 543 544 1
e 543 545 1
e 544 545 1
e 544 546 1
e 545 546 1
e 545 547 1
e 546 547 1
e 546 548 1
e 546 742 1
e 546 698 1
e 546 724 1
e 547 548 1
e 547 549 1
e 548 549 1
e 548 550 1
e 549 550 1
e 549 551 1
e 550 551 1
e 550 552 1
e 551 552 1
e 551 553 1
e 552 553 1
e 552 554 1
e 553 554 1
e 553 555 1
e 554 555 1
e 554 556 1
e 554 663 1
e 555 556 1
e 555 557 1
e 555 868 1
e 556 557 1
e 556 558 1
e 557 558 1
e 557 559 1
e 557 819 1
e 558 559 1
e 558 560 1
e 559 560 1
e 559 561 1
e 560 561 1
e 560 562 1
e 561 562 1
e 561 563 1
e 561 648 1
e 562 563 1
e 562 564 1
e 563 564 1
e 563 565 1
e 563 701 1
e 563 956 1
e 564 565 1
e 564 566 1
e 565 566 1
e 565 567 1
e 565 963 1
e 566 567 1
e 566 568 1
e 566 821 1
e 567 568 1
e 567 569 1
e 567 896 1
e 568 569 1
e 568 570 1
e 569 570 1
e 569 571 1
e 570 571 1
e 570 572 1
e 571 572 1
e 571 573 1
e 572 573 1
e 572 574 1
e 572 811 1
e 573 574 1
e 573 575 1
e 574 575 1
e 574 576 1
e 575 576 1
e 575 577 1
e 576 577 1
e 576 578 1
e 577 578 1
e 577 579 1
e 577 838 1
e 578 579 1
e 578 580 1
e 579 580 1
e 579 581 1
e 580 581 1
e 580 582 1
e 580 846 1
e 581 582 1
e 581 583 1
e 582 583 1
e 582 584 1
e 583 584 1
e 583 585 1
e 583 814 1
e 584 585 1
e 584 586 1
e 585 586 1
e 585 587 1
e 585 779 1
e 586 587 1
e 586 588 1
e 587 588 1
e 587 589 1
e 587 593 1
e 587 960 1
e 588 589 1
e 588 590 1
e 589 590 1
e 589 591 1
e 590 591 1
e 590 592 1
e 591 592 1
e 591 593 1
e 592 593 1
e 592 594 1
e 593 594 1
e 593 595 1
e 594 595 1
e 594 596 1
e 595 596 1
e 595 597 1
e 595 827 1
e 596 597 1
e 596 598 1
e 597 598 1
e 597 599 1
e 597 861 1
e 597 934 1
e 598 599 1
e 598 600 1
e 599 600 1
e 599 601 1
e 599 702 1
e 600 601 1
e 600 602 1
e 601 602 1
e 601 603 1
e 602 603 1
e 602 604 1
e 603 604 1
e 603 605 1
e 603 850 1
e 603 994 1
e 604 605 1
e 604 606 1
e 604 985 1
e 605 606 1
e 605 607 1
e 606 607 1
e 606 608 1
e 607 608 1
e 607 609 1
e 608 609 1
e 608 610 1
e 609 610 1
e 609 611 1
e 609 995 1
e 610 611 1
e 610 612 1
e 611 612 1
e 611 613 1
e 611 796 1
e 612 613 1
e 612 614 1
e 613 614 1
e 613 615 1
e 614 615 1
e 614 616 1
e 615 616 1
e 615 617 1
e 615 709 1
e 616 617 1
e 616 618 1
e 616 964 1
e 617 618 1
e 617 619 1
e 618 619 1
e 618 620 1
e 618 847 1
e 619 620 1
e 619 621 1
e 619 714 1
e 619 977 1
e 620 621 1
e 620 622 1
e 620 976 1
e 621 622 1
e 621 623 1
e 621 680 1
e 622 623 1
e 622 624 1
e 622 851 1
e 622 852 1
e 623 624 1
e 623 625 1
e 623 939 1
e 624 625 1
e 624 626 1
e 624 751 1
e 625 626 1
e 625 627 1
e 626 627 1
e 626 628 1
e 626 894 1
e 627 628 1
e 627 629 1
e 628 629 1
e 628 630 1
e 629 630 1
e 629 631 1
e 629 859 1
e 630 631 1
e 630 632 1
e 630 851 1
e 631 632 1
e 631 633 1
e 632 633 1
e 632 634 1
e 633 634 1
e 633 635 1
e 633 806 1
e 633 833 1
e 634 635 1
e 634 636 1
e 634 775 1
e 635 636 1
e 635 637 1
e 636 637 1
e 636 638 1
e 637 638 1
e 637 639 1
e 637 750 1
e 638 639 1
e 638 640 1
e 639 640 1
e 639 641 1
e 640 641 1
e 640 642 1
e 641 642 1
e 641 643 1
e 642 643 1
e 642 644 1
e 642 709 1
e 642 756 1
e 642 770 1
e 643 644 1
e 643 645 1
e 643 813 1
e 644 645 1
e 644 646 1
e 644 720 1
e 645 646 1
e 645 647 1
e 645 916 1
e 646 647 1
e 646 648 1
e 647 648 1
e 647 649 1
e 647 954 1
e 648 649 1
e 648 650 1
e 648 710 1
e 649 650 1
e 649 651 1
e 650 651 1
e 650 652 1
e 651 652 1
e 651 653 1
e 651 795 1
e 652 653 1
e 652 654 1
e 653 654 1
e 653 655 1
e 654 655 1
e 654 656 1
e 655 656 1
e 655 657 1
e 656 657 1
e 656 658 1
e 657 658 1
e 657 659 1
e 658 659 1
e 658 660 1
e 659 660 1
e 659 661 1
e 660 661 1
e 660 662 1
e 660 888 1
e 661 662 1
e 661 663 1
e 661 933 1
e 662 663 1
e 662 664 1
e 663 664 1
e 663 665 1
e 664 665 1
e 664 666 1
e 664 904 1
e 665 666 1
e 665 667 1
e 666 667 1
e 666 668 1
e 667 668 1
e 667 669 1
e 668 669 1
e 668 670 1
e 669 670 1
e 669 671 1
e 670 671 1
e 670 672 1
e 670 774 1
e 670 912 1
e 671 672 1
e 671 673 1
e 672 673 1
e 672 674 1
e 673 674 1
e 673 675 1
e 674 675 1
e 674 676 1
e 675 676 1
e 675 677 1
e 675 728 1
e 675 707 1
e 676 677 1
e 676 678 1
e 676 881 1
e 676 701 1
e 676 872 1
e 677 678 1
e 677 679 1
e 677 695 1
e 678 679 1
e 678 680 1
e 678 728 1
e 679 680 1
e 679 681 1
e 680 681 1
e 680 682 1
e 681 682 1
e 681 683 1
e 681 923 1
e 682 683 1
e 682 684 1
e 683 684 1
e 683 685 1
e 684 685 1
e 684 686 1
e 685 686 1
e 685 687 1
e 686 687 1
e 686 688 1
e 687 688 1
e 687 689 1
e 687 855 1
e 688 689 1
e 688 690 1
e 689 690 1
e 689 691 1
e 690 691 1
e 690 692 1
e 691 692 1
e 691 693 1
e 692 693 1
e 692 694 1
e 693 694 1
e 693 695 1
e 693 925 1
e 694 695 1
e 694 696 1
e 695 696 1
e 695 697 1
e 696 697 1
e 696 698 1
e 696 747 1
e 697 698 1
e 697 699 1
e 698 699 1
e 698 700 1
e 699 700 1
e 699 701 1
e 700 701 1
e 700 702 1
e 701 702 1
e 701 703 1
e 702 703 1
e 702 704 1
e 703 704 1
e 703 705 1
e 704 705 1
e 704 706 1
e 705 706 1
e 705 707 1
e 706 707 1
e 706 708 1
e 707 708 1
e 707 709 1
e 707 904 1
e 708 709 1
e 708 710 1
e 708 995 1
e 709 710 1
e 709 711 1
e 709 718 1
e 710 711 1
e 710 712 1
e 711 712 1
e 711 713 1
e 712 713 1
e 712 714 1
e 713 714 1
e 713 715 1
e 713 761 1
e 713 791 1
e 714 715 1
e 714 716 1
e 715 716 1
e 715 717 1
e 716 717 1
e 716 718 1
e 717 718 1
e 717 719 1
e 718 719 1
e 718 720 1
e 718 901 1
e 719 720 1
e 719 721 1
e 720 721 1
e 720 722 1
e 721 722 1
e 721 723 1
e 722 723 1
e 722 724 1
e 722 861 1
e 723 724 1
e 723 725 1
e 723 889 1
e 724 725 1
e 724 726 1
e 725 726 1
e 725 727 1
e 726 727 1
e 726 728 1
e 726 744 1
e 727 728 1
e 727 729 1
e 728 729 1
e 728 730 1
e 729 730 1
e 729 731 1
e 730 731 1
e 730 732 1
e 731 732 1
e 731 733 1
e 732 733 1
e 732 734 1
e 733 734 1
e 733 735 1
e 734 735 1
e 734 736 1
e 735 736 1
e 735 737 1
e 736 737 1
e 736 738 1
e 737 738 1
e 737 739 1
e 738 739 1
e 738 740 1
e 739 740 1
e 739 741 1
e 740 741 1
e 740 742 1
e 741 742 1
e 741 743 1
e 742 743 1
e 742 744 1
e 743 744 1
e 743 745 1
e 744 745 1
e 744 746 1
e 745 746 1
e 745 747 1
e 746 747 1
e 746 748 1
e 747 748 1
e 747 749 1
e 748 749 1
e 748 750 1
e 749 750 1
e 749 751 1
e 750 751 1
e 750 752 1
e 751 752 1
e 751 753 1
e 752 753 1
e 752 754 1
e 752 940 1
e 753 754 1
e 753 755 1
e 753 783 1
e 754 755 1
e 754 756 1
e 755 756 1
e 755 757 1
e 755 826 1
e 755 923 1
e 755 990 1
e 756 757 1
e 756 758 1
e 757 758 1
e 757 759 1
e 758 759 1
e 758 760 1
e 759 760 1
e 759 761 1
e 760 761 1
e 760 762 1
e 761 762 1
e 761 763 1
e 762 763 1
e 762 764 1
e 763 764 1
e 763 765 1
e 764 765 1
e 764 766 1
e 765 766 1
e 765 767 1
e 766 767 1
e 766 768 1
e 766 955 1
e 767 768 1
e 767 769 1
e 768 769 1
e 768 770 1
e 769 770 1
e 769 771 1
e 770 771 1
e 770 772 1
e 771 772 1
e 771 773 1
e 772 773 1
e 772 774 1
e 773 774 1
e 773 775 1
e 773 979 1
e 774 775 1
e 774 776 1
e 775 776 1
e 775 777 1
e 776 777 1
e 776 778 1
e 776 817 1
e 777 778 1
e 777 779 1
e 778 779 1
e 778 780 1
e 779 780 1
e 779 781 1
e 780 781 1
e 780 782 1
e 780 885 1
e 781 782 1
e 781 783 1
e 782 783 1
e 782 784 1
e 783 784 1
e 783 785 1
e 784 785 1
e 784 786 1
e 784 858 1
e 785 786 1
e 785 787 1
e 786 787 1
e 786 788 1
e 787 788 1
e 787 789 1
e 788 789 1
e 788 790 1
e 789 790 1
e 789 791 1
e 790 791 1
e 790 792 1
e 791 792 1
e 791 793 1
e 792 793 1
e 792 794 1
e 793 794 1
e 793 795 1
e 794 795 1
e 794 796 1
e 794 840 1
e 795 796 1
e 795 797 1
e 796 797 1
e 796 798 1
e 797 798 1
e 797 799 1
e 798 799 1
e 798 800 1
e 799 800 1
e 799 801 1
e 800 801 1
e 800 802 1
e 801 802 1
e 801 803 1
e 802 803 1
e 802 804 1
e 803 804 1
e 803 805 1
e 804 805 1
e 804 806 1
e 805 806 1
e 805 807 1
e 805 867 1
e 806 807 1
e 806 808 1
e 807 808 1
e 807 809 1
e 808 809 1
e 808 810 1
e 809 810 1
e 809 811 1
e 809 961 1
e 810 811 1
e 810 812 1
e 811 812 1
e 811 813 1
e 812 813 1
e 812 814 1
e 813 814 1
e 813 815 1
e 814 815 1
e 814 816 1
e 815 816 1
e 815 817 1
e 816 817 1
e 816 818 1
e 817 818 1
e 817 819 1
e 818 819 1
e 818 820 1
e 819 820 1
e 819 821 1
e 820 821 1
e 820 822 1
e 821 822 1
e 821 823 1
e 822 823 1
e 822 824 1
e 823 824 1
e 823 825 1
e 824 825 1
e 824 826 1
e 825 826 1
e 825 827 1
e 826 827 1
e 826 828 1
e 827 828 1
e 827 829 1
e 828 829 1
e 828 830 1
e 829 830 1
e 829 831 1
e 829 889 1
e 829 944 1
e 830 831 1
e 830 832 1
e 831 832 1
e 831 833 1
e 832 833 1
e 832 834 1
e 832 930 1
e 833 834 1
e 833 835 1
e 833 842 1
e 834 835 1
e 834 836 1
e 835 836 1
e 835 837 1
e 836 837 1
e 836 838 1
e 836 970 1
e 837 838 1
e 837 839 1
e 838 839 1
e 838 840 1
e 839 840 1
e 839 841 1
e 840 841 1
e 840 842 1
e 841 842 1
e 841 843 1
e 842 843 1
e 842 844 1
e 843 844 1
e 843 845 1
e 844 845 1
e 844 846 1
e 845 846 1
e 845 847 1
e 846 847 1
e 846 848 1
e 847 848 1
e 847 849 1
e 848 849 1
e 848 850 1
e 848 891 1
e 848 893 1
e 849 850 1
e 849 851 1
e 850 851 1
e 850 852 1
e 850 895 1
e 851 852 1
e 851 853 1
e 852 853 1
e 852 854 1
e 853 854 1
e 853 855 1
e 854 855 1
e 854 856 1
e 855 856 1
e 855 857 1
e 856 857 1
e 856 858 1
e 857 858 1
e 857 859 1
e 858 859 1
e 858 860 1
e 859 860 1
e 859 861 1
e 860 861 1
e 860 862 1
e 861 862 1
e 861 863 1
e 862 863 1
e 862 864 1
e 863 864 1
e 863 865 1
e 864 865 1
e 864 866 1
e 865 866 1
e 865 867 1
e 866 867 1
e 866 868 1
e 867 868 1
e 867 869 1
e 868 869 1
e 868 870 1
e 869 870 1
e 869 871 1
e 870 871 1
e 870 872 1
e 871 872 1
e 871 873 1
e 872 873 1
e 872 874 1
e 872 972 1
e 873 874 1
e 873 875 1
e 874 875 1
e 874 876 1
e 875 876 1
e 875 877 1
e 876 877 1
e 876 878 1
e 877 878 1
e 877 879 1
e 878 879 1
e 878 880 1
e 879 880 1
e 879 881 1
e 880 881 1
e 880 882 1
e 881 882 1
e 881 883 1
e 882 883 1
e 882 884 1
e 883 884 1
e 883 885 1
e 883 999 1
e 884 885 1
e 884 886 1
e 884 994 1
e 885 886 1
e 885 887 1
e 886 887 1
e 886 888 1
e 887 888 1
e 887 889 1
e 887 956 1
e 888 889 1
e 888 890 1
e 889 890 1
e 889 891 1
e 890 891 1
e 890 892 1
e 891 892 1
e 891 893 1
e 892 893 1
e 892 894 1
e 893 894 1
e 893 895 1
e 894 895 1
e 894 896 1
e 895 896 1
e 895 897 1
e 896 897 1
e 896 898 1
e 896 963 1
e 897 898 1
e 897 899 1
e 898 899 1
e 898 900 1
e 899 900 1
e 899 901 1
e 900 901 1
e 900 902 1
e 901 902 1
e 901 903 1
e 902 903 1
e 902 904 1
e 903 904 1
e 903 905 1
e 904 905 1
e 904 906 1
e 905 906 1
e 905 907 1
e 906 907 1
e 906 908 1
e 906 993 1
e 907 908 1
e 907 909 1
e 908 909 1
e 908 910 1
e 909 910 1
e 909 911 1
e 910 911 1
e 910 912 1
e 911 912 1
e 911 913 1
e 912 913 1
e 912 914 1
e 913 914 1
e 913 915 1
e 914 915 1
e 914 916 1
e 915 916 1
e 915 917 1
e 916 917 1
e 916 918 1
e 917 918 1
e 917 919 1
e 918 919 1
e 918 920 1
e 919 920 1
e 919 921 1
e 920 921 1
e 920 922 1
e 921 922 1
e 921 923 1
e 922 923 1
e 922 924 1
e 923 924 1
e 923 925 1
e 923 989 1
e 924 925 1
e 924 926 1
e 925 926 1
e 925 927 1
e 926 927 1
e 926 928 1
e 927 928 1
e 927 929 1
e 928 929 1
e 928 930 1
e 929 930 1
e 929 931 1
e 930 931 1
e 930 932 1
e 931 932 1
e 931 933 1
e 931 942 1
e 932 933 1
e 932 934 1
e 933 934 1
e 933 935 1
e 934 935 1
e 934 936 1
e 935 936 1
e 935 937 1
e 936 937 1
e 936 938 1
e 937 938 1
e 937 939 1
e 938 939 1
e 938 940 1
e 939 940 1
e 939 941 1
e 940 941 1
e 940 942 1
e 941 942 1
e 941 943 1
e 941 988 1
e 942 943 1
e 942 944 1
e 943 944 1
e 943 945 1
e 944 945 1
e 944 946 1
e 945 946 1
e 945 947 1
e 946 947 1
e 946 948 1
e 947 948 1
e 947 949 1
e 948 949 1
e 948 950 1
e 949 950 1
e 949 951 1
e 950 951 1
e 950 952 1
e 950 996 1
e 951 952 1
e 951 953 1
e 952 953 1
e 952 954 1
e 953 954 1
e 953 955 1
e 954 955 1
e 954 956 1
e 955 956 1
e 955 957 1
e 956 957 1
e 956 958 1
e 957 958 1
e 957 959 1
e 958 959 1
e 958 960 1
e 959 960 1
e 959 961 1
e 960 961 1
e 960 962 1
e 961 962 1
e 961 963 1
e 962 963 1
e 962 964 1
e 963 964 1
e 963 965 1
e 963 978 1
e 964 965 1
e 964 966 1
e 965 966 1
e 965 967 1
e 966 967 1
e 966 968 1
e 967 968 1
e 967 969 1
e 968 969 1
e 968 970 1
e 969 970 1
e 969 971 1
e 970 971 1
e 970 972 1
e 971 972 1
e 971 973 1
e 972 973 1
e 972 974 1
e 973 974 1
e 973 975 1
e 974 975 1
e 974 976 1
e 975 976 1
e 975 977 1
e 976 977 1
e 976 978 1
e 977 978 1
e 977 979 1
e 978 979 1
e 978 980 1
e 979 980 1
e 979 981 1
e 980 981 1
e 980 982 1
e 981 982 1
e 981 983 1
e 982 983 1
e 982 984 1
e 983 984 1
e 983 985 1
e 984 985 1
e 984 986 1
e 985 986 1
e 985 987 1
e 986 987 1
e 986 988 1
e 987 988 1
e 987 989 1
e 988 989 1
e 988 990 1
e 989 990 1
e 989 991 1
e 990 991 1
e 990 992 1
e 991 992 1
e 991 993 1
e 992 993 1
e 992 994 1
e 993 994 1
e 993 995 1
e 994 995 1
e 994 996 1
e 995 996 1
e 995 997 1
e 996 997 1
e 996 998 1
e 997 998 1
e 997 999 1
e 998 999 1
e 998 1000 1
e 999 1000 1